Minimize
  0.07884 Gkl_16 + 0.21024 Gkl_17 + 0.15768 Gkl_18 + 0 Rk1_19 + 0 Rk1_20
   + 0 Rk1_21 + 0 Rk1_22 + 0 Rk1_23 + 0 Rk1_24 + 0 Rk1_25 + 0 Rk1_26
   + 0 Rk1_27 + 0 Rk1_28 + 0 Rk1_29 + 0 Rk1_30 + 0 Rk2_31 + 0 Rk2_32
   + 0 Rk2_33 + 0 Rk2_34 + 0 Rk2_35 + 0 Rk2_36 + 2 I_45 + I_46 + 3.5 I_47
   + 1.5 I_48 + I_49 + 2 I_50 + 2 I_51 + 3 I_52 + 0.0716727272727273 Gkl_69
   + 0.1911272727272728 Gkl_70 + 0.1433454545454546 Gkl_71 + 0 Rk1_72
   + 0 Rk1_73 + 0 Rk1_74 + 0 Rk1_75 + 0 Rk1_76 + 0 Rk1_77 + 0 Rk1_78
   + 0 Rk1_79 + 0 Rk1_80 + 0 Rk1_81 + 0 Rk1_82 + 0 Rk1_83 + 0 Rk2_84
   + 0 Rk2_85 + 0 Rk2_86 + 0 Rk2_87 + 0 Rk2_88 + 0 Rk2_89
   + 1.818181818181818 I_98 + 0.9090909090909091 I_99
   + 3.181818181818182 I_100 + 1.363636363636364 I_101
   + 0.9090909090909091 I_102 + 1.818181818181818 I_103
   + 1.818181818181818 I_104 + 2.727272727272727 I_105
   + 0.0651570247933884 Gkl_122 + 0.1737520661157024 Gkl_123
   + 0.1303140495867768 Gkl_124 + 0 Rk1_125 + 0 Rk1_126 + 0 Rk1_127
   + 0 Rk1_128 + 0 Rk1_129 + 0 Rk1_130 + 0 Rk1_131 + 0 Rk1_132 + 0 Rk1_133
   + 0 Rk1_134 + 0 Rk1_135 + 0 Rk1_136 + 0 Rk2_137 + 0 Rk2_138 + 0 Rk2_139
   + 0 Rk2_140 + 0 Rk2_141 + 0 Rk2_142 + 1.652892561983471 I_151
   + 0.8264462809917354 I_152 + 2.892561983471074 I_153
   + 1.239669421487603 I_154 + 0.8264462809917354 I_155
   + 1.652892561983471 I_156 + 1.652892561983471 I_157
   + 2.479338842975206 I_158 + 0.0592336589030804 Gkl_175
   + 0.1579564237415476 Gkl_176 + 0.1184673178061607 Gkl_177 + 0 Rk1_178
   + 0 Rk1_179 + 0 Rk1_180 + 0 Rk1_181 + 0 Rk1_182 + 0 Rk1_183 + 0 Rk1_184
   + 0 Rk1_185 + 0 Rk1_186 + 0 Rk1_187 + 0 Rk1_188 + 0 Rk1_189 + 0 Rk2_190
   + 0 Rk2_191 + 0 Rk2_192 + 0 Rk2_193 + 0 Rk2_194 + 0 Rk2_195
   + 1.502629601803155 I_204 + 0.7513148009015775 I_205
   + 2.629601803155521 I_206 + 1.126972201352366 I_207
   + 0.7513148009015775 I_208 + 1.502629601803155 I_209
   + 1.502629601803155 I_210 + 2.253944402704732 I_211
   + 0.0538487808209822 Gkl_228 + 0.1435967488559524 Gkl_229
   + 0.1076975616419643 Gkl_230 + 0 Rk1_231 + 0 Rk1_232 + 0 Rk1_233
   + 0 Rk1_234 + 0 Rk1_235 + 0 Rk1_236 + 0 Rk1_237 + 0 Rk1_238 + 0 Rk1_239
   + 0 Rk1_240 + 0 Rk1_241 + 0 Rk1_242 + 0 Rk2_243 + 0 Rk2_244 + 0 Rk2_245
   + 0 Rk2_246 + 0 Rk2_247 + 0 Rk2_248 + 1.366026910730141 I_257
   + 0.6830134553650705 I_258 + 2.390547093777747 I_259
   + 1.024520183047606 I_260 + 0.6830134553650705 I_261
   + 1.366026910730141 I_262 + 1.366026910730141 I_263
   + 2.049040366095212 I_264 + 0.0489534371099838 Gkl_281
   + 0.1305424989599567 Gkl_282 + 0.0979068742199675 Gkl_283 + 0 Rk1_284
   + 0 Rk1_285 + 0 Rk1_286 + 0 Rk1_287 + 0 Rk1_288 + 0 Rk1_289 + 0 Rk1_290
   + 0 Rk1_291 + 0 Rk1_292 + 0 Rk1_293 + 0 Rk1_294 + 0 Rk1_295 + 0 Rk2_296
   + 0 Rk2_297 + 0 Rk2_298 + 0 Rk2_299 + 0 Rk2_300 + 0 Rk2_301
   + 1.24184264611831 I_310 + 0.6209213230591549 I_311
   + 2.173224630707042 I_312 + 0.9313819845887324 I_313
   + 0.6209213230591549 I_314 + 1.24184264611831 I_315
   + 1.24184264611831 I_316 + 1.862763969177465 I_317
   + 0.0445031246454398 Gkl_334 + 0.1186749990545061 Gkl_335
   + 0.0890062492908796 Gkl_336 + 0 Rk1_337 + 0 Rk1_338 + 0 Rk1_339
   + 0 Rk1_340 + 0 Rk1_341 + 0 Rk1_342 + 0 Rk1_343 + 0 Rk1_344 + 0 Rk1_345
   + 0 Rk1_346 + 0 Rk1_347 + 0 Rk1_348 + 0 Rk2_349 + 0 Rk2_350 + 0 Rk2_351
   + 0 Rk2_352 + 0 Rk2_353 + 0 Rk2_354 + 1.128947860107554 I_363
   + 0.5644739300537772 I_364 + 1.97565875518822 I_365
   + 0.8467108950806658 I_366 + 0.5644739300537772 I_367
   + 1.128947860107554 I_368 + 1.128947860107554 I_369
   + 1.693421790161332 I_370 + 0.0404573860413089 Gkl_387
   + 0.1078863627768237 Gkl_388 + 0.0809147720826178 Gkl_389 + 0 Rk1_390
   + 0 Rk1_391 + 0 Rk1_392 + 0 Rk1_393 + 0 Rk1_394 + 0 Rk1_395 + 0 Rk1_396
   + 0 Rk1_397 + 0 Rk1_398 + 0 Rk1_399 + 0 Rk1_400 + 0 Rk1_401 + 0 Rk2_402
   + 0 Rk2_403 + 0 Rk2_404 + 0 Rk2_405 + 0 Rk2_406 + 0 Rk2_407
   + 1.026316236461413 I_416 + 0.5131581182307065 I_417
   + 1.796053413807473 I_418 + 0.7697371773460596 I_419
   + 0.5131581182307065 I_420 + 1.026316236461413 I_421
   + 1.026316236461413 I_422 + 1.539474354692119 I_423
   + 0.0367794418557354 Gkl_440 + 0.0980785116152943 Gkl_441
   + 0.0735588837114707 Gkl_442 + 0 Rk1_443 + 0 Rk1_444 + 0 Rk1_445
   + 0 Rk1_446 + 0 Rk1_447 + 0 Rk1_448 + 0 Rk1_449 + 0 Rk1_450 + 0 Rk1_451
   + 0 Rk1_452 + 0 Rk1_453 + 0 Rk1_454 + 0 Rk2_455 + 0 Rk2_456 + 0 Rk2_457
   + 0 Rk2_458 + 0 Rk2_459 + 0 Rk2_460 + 0.9330147604194662 I_469
   + 0.4665073802097331 I_470 + 1.632775830734066 I_471
   + 0.6997610703145997 I_472 + 0.4665073802097331 I_473
   + 0.9330147604194662 I_474 + 0.9330147604194662 I_475
   + 1.399522140629199 I_476 + 0.0334358562324867 Gkl_493
   + 0.0891622832866312 Gkl_494 + 0.0668717124649734 Gkl_495 + 0 Rk1_496
   + 0 Rk1_497 + 0 Rk1_498 + 0 Rk1_499 + 0 Rk1_500 + 0 Rk1_501 + 0 Rk1_502
   + 0 Rk1_503 + 0 Rk1_504 + 0 Rk1_505 + 0 Rk1_506 + 0 Rk1_507 + 0 Rk2_508
   + 0 Rk2_509 + 0 Rk2_510 + 0 Rk2_511 + 0 Rk2_512 + 0 Rk2_513
   + 0.8481952367449691 I_522 + 0.4240976183724846 I_523
   + 1.484341664303696 I_524 + 0.6361464275587269 I_525
   + 0.4240976183724846 I_526 + 0.8481952367449691 I_527
   + 0.8481952367449691 I_528 + 1.272292855117454 I_529
Subject To
 R0: - Fkl_0 - 70000 Xkl_8 + Gk_ts_37 <= 0
 R1: - Fkl_1 - 70000 Xkl_9 + Gk_ts_38 <= 0
 R2: - Fkl_2 - 70000 Xkl_10 + Gk_ts_39 <= 0
 R3: - Fkl_3 - 70000 Xkl_11 + Gk_ts_40 <= 0
 R4: - Fkl_4 - 70000 Xkl_12 + Gk_ts_41 <= 0
 R5: - Fkl_5 - 70000 Xkl_13 + Gk_ts_42 <= 0
 R6: - Fkl_6 - 70000 Xkl_14 + Gk_ts_43 <= 0
 R7: - Fkl_7 - 70000 Xkl_15 + Gk_ts_44 <= 0
 R8: - Fkl_53 - 70000 Xkl_61 + Gk_ts_90 <= 0
 R9: - Fkl_54 - 70000 Xkl_62 + Gk_ts_91 <= 0
 R10: - Fkl_55 - 70000 Xkl_63 + Gk_ts_92 <= 0
 R11: - Fkl_56 - 70000 Xkl_64 + Gk_ts_93 <= 0
 R12: - Fkl_57 - 70000 Xkl_65 + Gk_ts_94 <= 0
 R13: - Fkl_58 - 70000 Xkl_66 + Gk_ts_95 <= 0
 R14: - Fkl_59 - 70000 Xkl_67 + Gk_ts_96 <= 0
 R15: - Fkl_60 - 70000 Xkl_68 + Gk_ts_97 <= 0
 R16: - Fkl_106 - 70000 Xkl_114 + Gk_ts_143 <= 0
 R17: - Fkl_107 - 70000 Xkl_115 + Gk_ts_144 <= 0
 R18: - Fkl_108 - 70000 Xkl_116 + Gk_ts_145 <= 0
 R19: - Fkl_109 - 70000 Xkl_117 + Gk_ts_146 <= 0
 R20: - Fkl_110 - 70000 Xkl_118 + Gk_ts_147 <= 0
 R21: - Fkl_111 - 70000 Xkl_119 + Gk_ts_148 <= 0
 R22: - Fkl_112 - 70000 Xkl_120 + Gk_ts_149 <= 0
 R23: - Fkl_113 - 70000 Xkl_121 + Gk_ts_150 <= 0
 R24: - Fkl_159 - 70000 Xkl_167 + Gk_ts_196 <= 0
 R25: - Fkl_160 - 70000 Xkl_168 + Gk_ts_197 <= 0
 R26: - Fkl_161 - 70000 Xkl_169 + Gk_ts_198 <= 0
 R27: - Fkl_162 - 70000 Xkl_170 + Gk_ts_199 <= 0
 R28: - Fkl_163 - 70000 Xkl_171 + Gk_ts_200 <= 0
 R29: - Fkl_164 - 70000 Xkl_172 + Gk_ts_201 <= 0
 R30: - Fkl_165 - 70000 Xkl_173 + Gk_ts_202 <= 0
 R31: - Fkl_166 - 70000 Xkl_174 + Gk_ts_203 <= 0
 R32: - Fkl_212 - 70000 Xkl_220 + Gk_ts_249 <= 0
 R33: - Fkl_213 - 70000 Xkl_221 + Gk_ts_250 <= 0
 R34: - Fkl_214 - 70000 Xkl_222 + Gk_ts_251 <= 0
 R35: - Fkl_215 - 70000 Xkl_223 + Gk_ts_252 <= 0
 R36: - Fkl_216 - 70000 Xkl_224 + Gk_ts_253 <= 0
 R37: - Fkl_217 - 70000 Xkl_225 + Gk_ts_254 <= 0
 R38: - Fkl_218 - 70000 Xkl_226 + Gk_ts_255 <= 0
 R39: - Fkl_219 - 70000 Xkl_227 + Gk_ts_256 <= 0
 R40: - Fkl_265 - 70000 Xkl_273 + Gk_ts_302 <= 0
 R41: - Fkl_266 - 70000 Xkl_274 + Gk_ts_303 <= 0
 R42: - Fkl_267 - 70000 Xkl_275 + Gk_ts_304 <= 0
 R43: - Fkl_268 - 70000 Xkl_276 + Gk_ts_305 <= 0
 R44: - Fkl_269 - 70000 Xkl_277 + Gk_ts_306 <= 0
 R45: - Fkl_270 - 70000 Xkl_278 + Gk_ts_307 <= 0
 R46: - Fkl_271 - 70000 Xkl_279 + Gk_ts_308 <= 0
 R47: - Fkl_272 - 70000 Xkl_280 + Gk_ts_309 <= 0
 R48: - Fkl_318 - 70000 Xkl_326 + Gk_ts_355 <= 0
 R49: - Fkl_319 - 70000 Xkl_327 + Gk_ts_356 <= 0
 R50: - Fkl_320 - 70000 Xkl_328 + Gk_ts_357 <= 0
 R51: - Fkl_321 - 70000 Xkl_329 + Gk_ts_358 <= 0
 R52: - Fkl_322 - 70000 Xkl_330 + Gk_ts_359 <= 0
 R53: - Fkl_323 - 70000 Xkl_331 + Gk_ts_360 <= 0
 R54: - Fkl_324 - 70000 Xkl_332 + Gk_ts_361 <= 0
 R55: - Fkl_325 - 70000 Xkl_333 + Gk_ts_362 <= 0
 R56: - Fkl_371 - 70000 Xkl_379 + Gk_ts_408 <= 0
 R57: - Fkl_372 - 70000 Xkl_380 + Gk_ts_409 <= 0
 R58: - Fkl_373 - 70000 Xkl_381 + Gk_ts_410 <= 0
 R59: - Fkl_374 - 70000 Xkl_382 + Gk_ts_411 <= 0
 R60: - Fkl_375 - 70000 Xkl_383 + Gk_ts_412 <= 0
 R61: - Fkl_376 - 70000 Xkl_384 + Gk_ts_413 <= 0
 R62: - Fkl_377 - 70000 Xkl_385 + Gk_ts_414 <= 0
 R63: - Fkl_378 - 70000 Xkl_386 + Gk_ts_415 <= 0
 R64: - Fkl_424 - 70000 Xkl_432 + Gk_ts_461 <= 0
 R65: - Fkl_425 - 70000 Xkl_433 + Gk_ts_462 <= 0
 R66: - Fkl_426 - 70000 Xkl_434 + Gk_ts_463 <= 0
 R67: - Fkl_427 - 70000 Xkl_435 + Gk_ts_464 <= 0
 R68: - Fkl_428 - 70000 Xkl_436 + Gk_ts_465 <= 0
 R69: - Fkl_429 - 70000 Xkl_437 + Gk_ts_466 <= 0
 R70: - Fkl_430 - 70000 Xkl_438 + Gk_ts_467 <= 0
 R71: - Fkl_431 - 70000 Xkl_439 + Gk_ts_468 <= 0
 R72: - Fkl_477 - 70000 Xkl_485 + Gk_ts_514 <= 0
 R73: - Fkl_478 - 70000 Xkl_486 + Gk_ts_515 <= 0
 R74: - Fkl_479 - 70000 Xkl_487 + Gk_ts_516 <= 0
 R75: - Fkl_480 - 70000 Xkl_488 + Gk_ts_517 <= 0
 R76: - Fkl_481 - 70000 Xkl_489 + Gk_ts_518 <= 0
 R77: - Fkl_482 - 70000 Xkl_490 + Gk_ts_519 <= 0
 R78: - Fkl_483 - 70000 Xkl_491 + Gk_ts_520 <= 0
 R79: - Fkl_484 - 70000 Xkl_492 + Gk_ts_521 <= 0
Bounds
 Fkl_0 free
 Fkl_1 free
 Fkl_2 free
 Fkl_3 free
 Fkl_4 free
 Fkl_5 free
 Fkl_6 free
 Fkl_7 free
 Rk2_31 free
 Rk2_32 free
 Rk2_33 free
 Rk2_34 free
 Rk2_35 free
 Rk2_36 free
 Gk_ts_37 free
 Gk_ts_38 free
 Gk_ts_39 free
 Gk_ts_40 free
 Gk_ts_41 free
 Gk_ts_42 free
 Gk_ts_43 free
 Gk_ts_44 free
 Fkl_53 free
 Fkl_54 free
 Fkl_55 free
 Fkl_56 free
 Fkl_57 free
 Fkl_58 free
 Fkl_59 free
 Fkl_60 free
 Rk2_84 free
 Rk2_85 free
 Rk2_86 free
 Rk2_87 free
 Rk2_88 free
 Rk2_89 free
 Gk_ts_90 free
 Gk_ts_91 free
 Gk_ts_92 free
 Gk_ts_93 free
 Gk_ts_94 free
 Gk_ts_95 free
 Gk_ts_96 free
 Gk_ts_97 free
 Fkl_106 free
 Fkl_107 free
 Fkl_108 free
 Fkl_109 free
 Fkl_110 free
 Fkl_111 free
 Fkl_112 free
 Fkl_113 free
 Rk2_137 free
 Rk2_138 free
 Rk2_139 free
 Rk2_140 free
 Rk2_141 free
 Rk2_142 free
 Gk_ts_143 free
 Gk_ts_144 free
 Gk_ts_145 free
 Gk_ts_146 free
 Gk_ts_147 free
 Gk_ts_148 free
 Gk_ts_149 free
 Gk_ts_150 free
 Fkl_159 free
 Fkl_160 free
 Fkl_161 free
 Fkl_162 free
 Fkl_163 free
 Fkl_164 free
 Fkl_165 free
 Fkl_166 free
 Rk2_190 free
 Rk2_191 free
 Rk2_192 free
 Rk2_193 free
 Rk2_194 free
 Rk2_195 free
 Gk_ts_196 free
 Gk_ts_197 free
 Gk_ts_198 free
 Gk_ts_199 free
 Gk_ts_200 free
 Gk_ts_201 free
 Gk_ts_202 free
 Gk_ts_203 free
 Fkl_212 free
 Fkl_213 free
 Fkl_214 free
 Fkl_215 free
 Fkl_216 free
 Fkl_217 free
 Fkl_218 free
 Fkl_219 free
 Rk2_243 free
 Rk2_244 free
 Rk2_245 free
 Rk2_246 free
 Rk2_247 free
 Rk2_248 free
 Gk_ts_249 free
 Gk_ts_250 free
 Gk_ts_251 free
 Gk_ts_252 free
 Gk_ts_253 free
 Gk_ts_254 free
 Gk_ts_255 free
 Gk_ts_256 free
 Fkl_265 free
 Fkl_266 free
 Fkl_267 free
 Fkl_268 free
 Fkl_269 free
 Fkl_270 free
 Fkl_271 free
 Fkl_272 free
 Rk2_296 free
 Rk2_297 free
 Rk2_298 free
 Rk2_299 free
 Rk2_300 free
 Rk2_301 free
 Gk_ts_302 free
 Gk_ts_303 free
 Gk_ts_304 free
 Gk_ts_305 free
 Gk_ts_306 free
 Gk_ts_307 free
 Gk_ts_308 free
 Gk_ts_309 free
 Fkl_318 free
 Fkl_319 free
 Fkl_320 free
 Fkl_321 free
 Fkl_322 free
 Fkl_323 free
 Fkl_324 free
 Fkl_325 free
 Rk2_349 free
 Rk2_350 free
 Rk2_351 free
 Rk2_352 free
 Rk2_353 free
 Rk2_354 free
 Gk_ts_355 free
 Gk_ts_356 free
 Gk_ts_357 free
 Gk_ts_358 free
 Gk_ts_359 free
 Gk_ts_360 free
 Gk_ts_361 free
 Gk_ts_362 free
 Fkl_371 free
 Fkl_372 free
 Fkl_373 free
 Fkl_374 free
 Fkl_375 free
 Fkl_376 free
 Fkl_377 free
 Fkl_378 free
 Rk2_402 free
 Rk2_403 free
 Rk2_404 free
 Rk2_405 free
 Rk2_406 free
 Rk2_407 free
 Gk_ts_408 free
 Gk_ts_409 free
 Gk_ts_410 free
 Gk_ts_411 free
 Gk_ts_412 free
 Gk_ts_413 free
 Gk_ts_414 free
 Gk_ts_415 free
 Fkl_424 free
 Fkl_425 free
 Fkl_426 free
 Fkl_427 free
 Fkl_428 free
 Fkl_429 free
 Fkl_430 free
 Fkl_431 free
 Rk2_455 free
 Rk2_456 free
 Rk2_457 free
 Rk2_458 free
 Rk2_459 free
 Rk2_460 free
 Gk_ts_461 free
 Gk_ts_462 free
 Gk_ts_463 free
 Gk_ts_464 free
 Gk_ts_465 free
 Gk_ts_466 free
 Gk_ts_467 free
 Gk_ts_468 free
 Fkl_477 free
 Fkl_478 free
 Fkl_479 free
 Fkl_480 free
 Fkl_481 free
 Fkl_482 free
 Fkl_483 free
 Fkl_484 free
 Rk2_508 free
 Rk2_509 free
 Rk2_510 free
 Rk2_511 free
 Rk2_512 free
 Rk2_513 free
 Gk_ts_514 free
 Gk_ts_515 free
 Gk_ts_516 free
 Gk_ts_517 free
 Gk_ts_518 free
 Gk_ts_519 free
 Gk_ts_520 free
 Gk_ts_521 free
Binaries
 Xkl_8 Xkl_9 Xkl_10 Xkl_11 Xkl_12 Xkl_13 Xkl_14 Xkl_15 I_45 I_46 I_47 I_48
 I_49 I_50 I_51 I_52 Xkl_61 Xkl_62 Xkl_63 Xkl_64 Xkl_65 Xkl_66 Xkl_67
 Xkl_68 I_98 I_99 I_100 I_101 I_102 I_103 I_104 I_105 Xkl_114 Xkl_115
 Xkl_116 Xkl_117 Xkl_118 Xkl_119 Xkl_120 Xkl_121 I_151 I_152 I_153 I_154
 I_155 I_156 I_157 I_158 Xkl_167 Xkl_168 Xkl_169 Xkl_170 Xkl_171 Xkl_172
 Xkl_173 Xkl_174 I_204 I_205 I_206 I_207 I_208 I_209 I_210 I_211 Xkl_220
 Xkl_221 Xkl_222 Xkl_223 Xkl_224 Xkl_225 Xkl_226 Xkl_227 I_257 I_258 I_259
 I_260 I_261 I_262 I_263 I_264 Xkl_273 Xkl_274 Xkl_275 Xkl_276 Xkl_277
 Xkl_278 Xkl_279 Xkl_280 I_310 I_311 I_312 I_313 I_314 I_315 I_316 I_317
 Xkl_326 Xkl_327 Xkl_328 Xkl_329 Xkl_330 Xkl_331 Xkl_332 Xkl_333 I_363
 I_364 I_365 I_366 I_367 I_368 I_369 I_370 Xkl_379 Xkl_380 Xkl_381 Xkl_382
 Xkl_383 Xkl_384 Xkl_385 Xkl_386 I_416 I_417 I_418 I_419 I_420 I_421 I_422
 I_423 Xkl_432 Xkl_433 Xkl_434 Xkl_435 Xkl_436 Xkl_437 Xkl_438 Xkl_439
 I_469 I_470 I_471 I_472 I_473 I_474 I_475 I_476 Xkl_485 Xkl_486 Xkl_487
 Xkl_488 Xkl_489 Xkl_490 Xkl_491 Xkl_492 I_522 I_523 I_524 I_525 I_526
 I_527 I_528 I_529
End
